 vasp.5.3.5 31Mar14 (build Oct 18 2016 11:10:54) complex

 executed on             LinuxIFC date 2017.10.11  17:08:25

 INCAR:
 POTCAR:    PAW_PBE O 08Apr2002
 POTCAR:    PAW_PBE Si 05Jan2001

 POTCAR:    PAW_PBE O 08Apr2002
   VRHFIN =O: s2p4

   TITEL  = PAW_PBE O 08Apr2002
   POMASS =   16.000; ZVAL   =    6.000    mass and valenz
   ENMAX  =  400.000; ENMIN  =  300.000 eV

 POTCAR:    PAW_PBE Si 05Jan2001
   VRHFIN =Si: s2p2

   TITEL  = PAW_PBE Si 05Jan2001
   POMASS =   28.085; ZVAL   =    4.000    mass and valenz
   ENMAX  =  245.345; ENMIN  =  184.009 eV

 Optimization of the real space projectors (new method)

 maximal supplied QI-value         = 24.76
 optimisation between [QCUT,QGAM] = [ 10.15, 20.30] = [ 28.85,115.39] Ry
 Optimized for a Real-space Cutoff    1.51 Angstroem

   l    n(q)    QCUT    max X(q) W(low)/X(q) W(high)/X(q)  e(spline)
   0      9    10.150    20.381    0.17E-03    0.18E-03    0.41E-06
   0      9    10.150    15.268    0.18E-03    0.20E-03    0.43E-06
   1      9    10.150     5.964    0.16E-03    0.20E-03    0.36E-06
   1      9    10.150     5.382    0.13E-03    0.16E-03    0.33E-06
 Optimization of the real space projectors (new method)

 maximal supplied QI-value         = 19.84
 optimisation between [QCUT,QGAM] = [ 10.12, 20.44] = [ 28.68,116.96] Ry
 Optimized for a Real-space Cutoff    1.38 Angstroem

   l    n(q)    QCUT    max X(q) W(low)/X(q) W(high)/X(q)  e(spline)
   0      8    10.119   159.560    0.58E-04    0.11E-03    0.54E-07
   0      8    10.119   115.863    0.56E-04    0.11E-03    0.54E-07
   1      8    10.119    88.339    0.22E-03    0.17E-03    0.19E-06
   1      8    10.119    48.592    0.22E-03    0.17E-03    0.18E-06
  PAW_PBE O 08Apr2002                   :
  PAW_PBE Si 05Jan2001                  :

 POSCAR: (Si O2)81  (P1) ~ Ciellie_MCM41 (MD #12)
  positions in direct lattice
  velocities in cartesian coordinates
 exchange correlation table for  LEXCH =        8
   RHO(1)=    0.500       N(1)  =     2000
   RHO(2)=  100.500       N(2)  =     4000

 ion  position               nearest neighbor table
   1  0.069  0.138  0.000- 165 1.59 170 1.59
   2  0.264  0.069  0.111- 192 1.59 163 1.59
   3  0.195  0.264  0.222- 172 1.59 164 1.59
   4  0.264  0.195  0.000- 192 1.59 170 1.59
   5  0.069  0.264  0.111- 165 1.59 172 1.59
   6  0.138  0.069  0.222- 163 1.59 164 1.59
   7  0.069  0.138  0.333- 164 1.59 168 1.59
   8  0.264  0.069  0.444- 195 1.59 166 1.59
   9  0.195  0.264  0.556- 167 1.59 175 1.59
  10  0.264  0.195  0.333- 164 1.59 195 1.59
  11  0.069  0.264  0.444- 168 1.59 175 1.59
  12  0.138  0.069  0.556- 167 1.59 166 1.59
  13  0.069  0.138  0.667- 171 1.59 167 1.59
  14  0.264  0.069  0.778- 169 1.59 198 1.59
  15  0.195  0.264  0.889- 170 1.59 178 1.59
  16  0.264  0.195  0.667- 198 1.59 167 1.59
  17  0.069  0.264  0.778- 178 1.59 171 1.59
  18  0.138  0.069  0.889- 170 1.59 169 1.59
  19  0.069  0.472  0.000- 174 1.59 179 1.59
  20  0.264  0.403  0.111- 201 1.59 172 1.59
  21  0.195  0.597  0.222- 181 1.59 173 1.59
  22  0.264  0.528  0.000- 179 1.59 201 1.59
  23  0.069  0.597  0.111- 174 1.59 181 1.59
  24  0.138  0.403  0.222- 172 1.59 173 1.59
  25  0.069  0.472  0.333- 173 1.59 177 1.59
  26  0.264  0.403  0.444- 204 1.59 175 1.59
  27  0.195  0.597  0.556- 184 1.59 176 1.59
  28  0.264  0.528  0.333- 173 1.59 204 1.59
  29  0.069  0.597  0.444- 177 1.59 184 1.59
  30  0.138  0.403  0.556- 176 1.59 175 1.59
  31  0.069  0.472  0.667- 180 1.59 176 1.59
  32  0.264  0.403  0.778- 178 1.59 207 1.59
  33  0.195  0.597  0.889- 187 1.59 179 1.59
  34  0.264  0.528  0.667- 207 1.59 176 1.59
  35  0.069  0.597  0.778- 187 1.59 180 1.59
  36  0.138  0.403  0.889- 179 1.59 178 1.59
  37  0.069  0.805  0.000- 183 1.59 188 1.59
  38  0.264  0.736  0.111- 210 1.59 181 1.59
  39  0.195  0.931  0.222- 163 1.59 182 1.59
  40  0.264  0.862  0.000- 188 1.59 210 1.59
  41  0.069  0.931  0.111- 183 1.59 163 1.59
  42  0.138  0.736  0.222- 181 1.59 182 1.59
  43  0.069  0.805  0.333- 186 1.59 182 1.59
  44  0.264  0.736  0.444- 213 1.59 184 1.59
  45  0.195  0.931  0.556- 166 1.59 185 1.59
  46  0.264  0.862  0.333- 182 1.59 213 1.59
  47  0.069  0.931  0.444- 186 1.59 166 1.59
  48  0.138  0.736  0.556- 185 1.59 184 1.59
  49  0.069  0.805  0.667- 189 1.59 185 1.59
  50  0.264  0.736  0.778- 187 1.59 216 1.59
  51  0.195  0.931  0.889- 169 1.59 188 1.59
  52  0.264  0.862  0.667- 216 1.59 185 1.59
  53  0.069  0.931  0.778- 169 1.59 189 1.59
  54  0.138  0.736  0.889- 188 1.59 187 1.59
  55  0.403  0.138  0.000- 192 1.59 197 1.59
  56  0.597  0.069  0.111- 219 1.59 190 1.59
  57  0.528  0.264  0.222- 191 1.59 199 1.59
  58  0.597  0.195  0.000- 219 1.59 197 1.59
  59  0.403  0.264  0.111- 192 1.59 199 1.59
  60  0.472  0.069  0.222- 190 1.59 191 1.59
[...]
 149  0.736  0.931  0.111- 237 1.59 217 1.59
 150  0.805  0.736  0.222- 235 1.59 236 1.59
 151  0.736  0.805  0.333- 236 1.59 240 1.59
 152  0.931  0.736  0.444- 186 1.59 238 1.59
 153  0.862  0.931  0.556- 239 1.59 220 1.59
 154  0.931  0.862  0.333- 236 1.59 186 1.59
 155  0.736  0.931  0.444- 240 1.59 220 1.59
 156  0.805  0.736  0.556- 239 1.59 238 1.59
 157  0.736  0.805  0.667- 243 1.59 239 1.59
 158  0.931  0.736  0.778- 241 1.59 189 1.59
 159  0.862  0.931  0.889- 242 1.59 223 1.59
 160  0.931  0.862  0.667- 189 1.59 239 1.59
 161  0.736  0.931  0.778- 223 1.59 243 1.59
 162  0.805  0.736  0.889- 242 1.59 241 1.59
 163  0.167  0.000  0.167-  39 1.59   2 1.59   6 1.59  41 1.59 192 3.09 182 3.09 164 3.09 183 3.09

 164  0.167  0.167  0.278-  10 1.59   7 1.59   3 1.59   6 1.59 172 3.09 195 3.09 168 3.09 163 3.09

[...]

 243  0.667  0.833  0.722- 157 1.59 104 1.59 106 1.59 161 1.59 239 3.09 214 3.09 212 3.09 223 3.09

  LATTYP: Found a hexagonal cell.
 ALAT       =    14.9919006152
 C/A-ratio  =     1.0920296712

  Lattice vectors:

 A1 = (  14.9919003000,   0.0000000000,   0.0000000000)
 A2 = (  -7.4959498300,  12.9833666900,   0.0000000000)
 A3 = (   0.0000003000,   0.0000005200,  16.3716003000)

Analysis of symmetry for initial positions (statically):
 Subroutine PRICEL returns following result:

[...]

  27 primitive cells build up your supercell.

 Routine SETGRP: Setting up the symmetry group for a
 hexagonal supercell.

 Subroutine GETGRP returns: Found 12 space group operations
 (whereof  4 operations were pure point group operations)
 out of a pool of 24 trial point group operations.

The static configuration has the point symmetry D_2 .
 The point group associated with its full space group is D_6 .

Analysis of symmetry for dynamics (positions and initial velocities):
 Subroutine PRICEL returns following result:

  LATTYP: Found a hexagonal cell.
 ALAT       =     4.9973001551
 C/A-ratio  =     1.0920296712

  Lattice vectors:

 A1 = (   4.9973000500,   0.0000000000,   0.0000000000)
 A2 = (  -2.4986499183,   4.3277888534,   0.0000000000)
 A3 = (   0.0000001000,   0.0000001733,   5.4572000454)

  27 primitive cells build up your supercell.

 Routine SETGRP: Setting up the symmetry group for a
 hexagonal supercell.

 Subroutine GETGRP returns: Found 12 space group operations
 (whereof  4 operations were pure point group operations)
 out of a pool of 24 trial point group operations.

The dynamic configuration has the point symmetry D_2 .
 The point group associated with its full space group is D_6 .

 KPOINTS: Automatic mesh

Automatic generation of k-mesh.
Space group operators:
 irot       det(A)        alpha          n_x          n_y          n_z        tau_x        tau_y        tau_z
    1     1.000000     0.000000     1.000000     0.000000     0.000000     0.000000     0.000000     0.000000
    2     1.000000   180.000000     0.000000     0.000000     1.000000     0.000000     0.000000     0.000000
    3     1.000000   180.000000     1.000000    -0.000000    -0.000000     0.000000     0.000000     0.000000
    4     1.000000   180.000000     0.000000     1.000000    -0.000000     0.000000     0.000000     0.000000
    5     1.000000    60.000000     0.000000    -0.000000    -1.000000    -0.000000     0.000000     0.111111
    6     1.000000   120.000000     0.000000    -0.000000    -1.000000    -0.000000     0.000000     0.222222
    7     1.000000   120.000000     0.000000     0.000000     1.000000    -0.000000     0.000000     0.111111
    8     1.000000    60.000000     0.000000     0.000000     1.000000    -0.000000     0.000000     0.222222
    9     1.000000   180.000000    -0.866025     0.500000    -0.000000    -0.000000     0.000000     0.222222
   10     1.000000   180.000000    -0.500000     0.866025    -0.000000    -0.000000     0.000000     0.111111
   11     1.000000   180.000000     0.500000     0.866025    -0.000000    -0.000000     0.000000     0.222222
   12     1.000000   180.000000    -0.866025    -0.500000     0.000000    -0.000000     0.000000     0.111111

 Subroutine IBZKPT returns following result:

 Found    133 irreducible k-points:

 Following reciprocal coordinates:
            Coordinates               Weight
  0.000000  0.000000  0.000000      1.000000
  0.083333  0.000000 -0.000000      6.000000
  0.166667  0.000000 -0.000000      6.000000
  0.250000  0.000000  0.000000      6.000000
  0.333333  0.000000 -0.000000      6.000000
  0.416667  0.000000  0.000000      6.000000
  0.500000  0.000000  0.000000      3.000000
  0.083333  0.083333  0.000000      6.000000
  0.166667  0.083333  0.000000     12.000000
  0.250000  0.083333  0.000000     12.000000
  0.333333  0.083333 -0.000000     12.000000
  0.416667  0.083333  0.000000     12.000000
  0.166667  0.166667 -0.000000      6.000000
  0.250000  0.166667 -0.000000     12.000000
  0.333333  0.166667 -0.000000     12.000000
  0.416667  0.166667  0.000000      6.000000
  0.250000  0.250000  0.000000      6.000000
  0.333333  0.250000  0.000000     12.000000
  0.333333  0.333333  0.000000      2.000000
  0.000000  0.000000  0.083333      2.000000
  0.083333  0.000000  0.083333     12.000000
  0.166667  0.000000  0.083333     12.000000
  0.250000  0.000000  0.083333     12.000000
  0.333333  0.000000  0.083333     12.000000
  0.416667  0.000000  0.083333     12.000000
  0.500000  0.000000  0.083333      6.000000
  0.083333  0.083333  0.083333     12.000000
  0.166667  0.083333  0.083333     24.000000
  0.250000  0.083333  0.083333     24.000000
  0.333333  0.083333  0.083333     24.000000
  0.416667  0.083333  0.083333     24.000000
  0.166667  0.166667  0.083333     12.000000
  0.250000  0.166667  0.083333     24.000000
  0.333333  0.166667  0.083333     24.000000
  0.416667  0.166667  0.083333     12.000000
  0.250000  0.250000  0.083333     12.000000
  0.333333  0.250000  0.083333     24.000000
  0.333333  0.333333  0.083333      4.000000
  0.000000  0.000000  0.166667      2.000000
  0.083333  0.000000  0.166667     12.000000
  0.166667  0.000000  0.166667     12.000000
  0.250000  0.000000  0.166667     12.000000
  0.333333  0.000000  0.166667     12.000000
  0.416667  0.000000  0.166667     12.000000
  0.500000  0.000000  0.166667      6.000000
  0.083333  0.083333  0.166667     12.000000
  0.166667  0.083333  0.166667     24.000000
  0.250000  0.083333  0.166667     24.000000
[...]
     0.000000300  0.000000520 16.371600300     0.000000000  0.000000000  0.061081384

  length of vectors
    14.991900300 14.991900295 16.371600300     0.077021625  0.077021625  0.061081384

 FORCES acting on ions
    electron-ion (+dipol)            ewald-force                    non-local-force                 convergence-correction
   -.512E-04 0.677E+02 0.488E-05   -.163E-05 -.846E+02 0.631E-06   0.403E-06 0.164E+02 -.211E-19   -.468E-06 -.184E-04 0.338E-08
   -.587E+02 0.339E+02 -.666E-04   0.733E+02 -.423E+02 -.985E-05   -.142E+02 0.819E+01 -.639E-20   0.800E-04 -.107E-04 -.712E-06
   -.587E+02 -.339E+02 -.409E-04   0.733E+02 0.423E+02 0.924E-05   -.142E+02 -.819E+01 0.993E-20   0.476E-04 0.636E-04 -.151E-05
   0.614E-03 -.677E+02 0.926E-04   0.495E-05 0.846E+02 -.615E-05   -.403E-06 -.164E+02 -.412E-20   0.312E-04 0.730E-04 0.265E-06
   0.587E+02 -.339E+02 0.107E-03   -.733E+02 0.423E+02 0.157E-04   0.142E+02 -.819E+01 -.104E-19   -.492E-04 0.640E-04 -.189E-06
   0.587E+02 0.339E+02 0.349E-04   -.733E+02 -.423E+02 0.160E-04   0.142E+02 0.819E+01 -.189E-20   -.157E-04 -.959E-05 -.125E-05
   -.412E-04 0.677E+02 0.717E-04   -.193E-04 -.846E+02 0.183E-04   0.403E-06 0.164E+02 -.168E-19   -.465E-06 -.184E-04 -.168E-05
   -.587E+02 0.339E+02 0.112E-05   0.733E+02 -.423E+02 0.714E-05   -.142E+02 0.819E+01 0.171E-19   0.800E-04 -.107E-04 -.109E-05
   -.587E+02 -.339E+02 -.175E-03   0.733E+02 0.423E+02 -.205E-04   -.142E+02 -.819E+01 -.145E-19   0.476E-04 0.636E-04 0.567E-06
   0.604E-03 -.677E+02 0.159E-03   0.226E-04 0.846E+02 0.115E-04   -.403E-06 -.164E+02 0.918E-20   0.312E-04 0.730E-04 -.142E-05
   0.587E+02 -.339E+02 0.175E-03   -.733E+02 0.423E+02 0.327E-04   0.142E+02 -.819E+01 -.102E-19   -.492E-04 0.640E-04 -.571E-06
   0.587E+02 0.339E+02 -.995E-04   -.733E+02 -.423E+02 -.138E-04   0.142E+02 0.819E+01 0.574E-21   -.157E-04 -.959E-05 0.829E-06
   -.611E-04 0.677E+02 -.620E-04   0.160E-04 -.846E+02 -.170E-04   0.403E-06 0.164E+02 -.241E-19   -.471E-06 -.184E-04 0.169E-05
   -.587E+02 0.339E+02 -.133E-03   0.733E+02 -.423E+02 -.226E-04   -.142E+02 0.819E+01 -.125E-19   0.800E-04 -.107E-04 0.981E-06
   -.587E+02 -.339E+02 -.107E-03   0.733E+02 0.423E+02 -.355E-05   -.142E+02 -.819E+01 -.194E-19   0.476E-04 0.636E-04 0.186E-06
   0.624E-03 -.677E+02 0.258E-04   -.127E-04 0.846E+02 -.238E-04   -.403E-06 -.164E+02 -.420E-19   0.312E-04 0.730E-04 0.195E-05
   0.587E+02 -.339E+02 0.406E-04   -.733E+02 0.423E+02 0.294E-05   0.142E+02 -.819E+01 0.664E-20   -.492E-04 0.640E-04 0.150E-05
   0.587E+02 0.339E+02 -.317E-04   -.733E+02 -.423E+02 0.320E-05   0.142E+02 0.819E+01 0.681E-20   -.157E-04 -.959E-05 0.447E-06
   0.263E-03 0.677E+02 -.290E-04   -.854E-05 -.846E+02 0.284E-05   0.403E-06 0.164E+02 -.186E-20   -.122E-04 -.209E-04 -.430E-06
   -.587E+02 0.339E+02 0.552E-04   0.733E+02 -.423E+02 -.133E-04   -.142E+02 0.819E+01 -.697E-20   0.453E-04 0.211E-04 -.405E-06
   -.587E+02 -.339E+02 0.209E-04   0.733E+02 0.423E+02 0.269E-04   -.142E+02 -.819E+01 0.244E-19   0.344E-04 0.208E-04 -.124E-05
   0.814E-04 -.677E+02 -.651E-05   0.253E-04 0.846E+02 0.129E-04   -.403E-06 -.164E+02 -.173E-20   -.131E-05 0.606E-04 -.344E-08
   0.587E+02 -.339E+02 0.521E-04   -.733E+02 0.423E+02 -.526E-06   0.142E+02 -.819E+01 -.164E-19   -.239E-04 0.670E-06 -.218E-07
   0.587E+02 0.339E+02 -.481E-05   -.733E+02 -.423E+02 0.169E-04   0.142E+02 0.819E+01 -.160E-20   -.475E-04 0.214E-04 -.128E-05
   0.273E-03 0.677E+02 0.379E-04   -.262E-04 -.846E+02 0.205E-04   0.403E-06 0.164E+02 -.233E-19   -.122E-04 -.209E-04 -.212E-05
   -.587E+02 0.339E+02 0.123E-03   0.733E+02 -.423E+02 0.368E-05   -.142E+02 0.819E+01 0.207E-19   0.453E-04 0.211E-04 -.787E-06
   -.587E+02 -.339E+02 -.113E-03   0.733E+02 0.423E+02 -.285E-05   -.142E+02 -.819E+01 -.128E-19   0.344E-04 0.208E-04 0.835E-06
   0.715E-04 -.677E+02 0.603E-04   0.430E-04 0.846E+02 0.305E-04   -.403E-06 -.164E+02 0.185E-19   -.131E-05 0.606E-04 -.169E-05
   0.587E+02 -.339E+02 0.120E-03   -.733E+02 0.423E+02 0.165E-04   0.142E+02 -.819E+01 -.756E-20   -.239E-04 0.672E-06 -.403E-06
   0.587E+02 0.339E+02 -.139E-03   -.733E+02 -.423E+02 -.129E-04   0.142E+02 0.819E+01 0.744E-20   -.475E-04 0.214E-04 0.791E-06
   0.253E-03 0.677E+02 -.959E-04   0.912E-05 -.846E+02 -.148E-04   0.403E-06 0.164E+02 -.759E-20   -.122E-04 -.209E-04 0.126E-05
   -.587E+02 0.339E+02 -.114E-04   0.733E+02 -.423E+02 -.261E-04   -.142E+02 0.819E+01 0.120E-19   0.453E-04 0.211E-04 0.129E-05
   -.587E+02 -.339E+02 -.457E-04   0.733E+02 0.423E+02 0.141E-04   -.142E+02 -.819E+01 -.926E-20   0.344E-04 0.208E-04 0.453E-06
   0.914E-04 -.677E+02 -.734E-04   0.769E-05 0.846E+02 -.479E-05   -.403E-06 -.164E+02 0.364E-20   -.130E-05 0.606E-04 0.168E-05
   0.587E+02 -.339E+02 -.144E-04   -.733E+02 0.423E+02 -.133E-04   0.142E+02 -.819E+01 -.549E-21   -.239E-04 0.670E-06 0.167E-05
   0.587E+02 0.339E+02 -.714E-04   -.733E+02 -.423E+02 0.408E-05   0.142E+02 0.819E+01 -.337E-20   -.475E-04 0.214E-04 0.410E-06
   0.555E-03 0.677E+02 -.776E-04   0.119E-04 -.846E+02 -.162E-04   0.403E-06 0.164E+02 -.193E-19   0.321E-04 -.740E-04 -.265E-06
   -.587E+02 0.339E+02 0.204E-04   0.733E+02 -.423E+02 0.294E-05   -.142E+02 0.819E+01 -.257E-19   0.515E-04 -.297E-04 -.451E-06
   -.587E+02 -.339E+02 0.124E-03   0.733E+02 0.423E+02 0.260E-04   -.142E+02 -.819E+01 -.618E-20   0.802E-04 0.924E-05 -.977E-06
   -.752E-03 -.677E+02 -.245E-04   0.184E-04 0.846E+02 0.107E-04   -.403E-06 -.164E+02 -.275E-19   0.418E-04 0.292E-04 -.466E-07
   0.587E+02 -.339E+02 0.204E-04   -.733E+02 0.423E+02 0.294E-05   0.142E+02 -.819E+01 0.198E-19   -.152E-04 0.880E-05 -.451E-06
   0.587E+02 0.339E+02 0.707E-04   -.733E+02 -.423E+02 -.824E-06   0.142E+02 0.819E+01 0.778E-20   -.437E-05 -.508E-04 -.120E-05
   0.565E-03 0.677E+02 -.108E-04   -.580E-05 -.846E+02 0.147E-05   0.403E-06 0.164E+02 0.639E-21   0.321E-04 -.740E-04 -.195E-05
   -.587E+02 0.339E+02 0.881E-04   0.733E+02 -.423E+02 0.199E-04   -.142E+02 0.819E+01 0.695E-20   0.515E-04 -.297E-04 -.832E-06
   -.587E+02 -.339E+02 -.105E-04   0.733E+02 0.423E+02 -.373E-05   -.142E+02 -.819E+01 -.117E-19   0.802E-04 0.924E-05 0.110E-05
   -.762E-03 -.677E+02 0.424E-04   0.361E-04 0.846E+02 0.283E-04   -.403E-06 -.164E+02 0.205E-19   0.418E-04 0.292E-04 -.173E-05
   0.587E+02 -.339E+02 0.881E-04   -.733E+02 0.423E+02 0.199E-04   0.142E+02 -.819E+01 -.151E-20   -.153E-04 0.880E-05 -.832E-06
   0.587E+02 0.339E+02 -.637E-04   -.733E+02 -.423E+02 -.306E-04   0.142E+02 0.819E+01 -.549E-21   -.438E-05 -.508E-04 0.879E-06
   0.545E-03 0.677E+02 -.144E-03   0.295E-04 -.846E+02 -.339E-04   0.403E-06 0.164E+02 -.775E-20   0.321E-04 -.740E-04 0.142E-05
   -.587E+02 0.339E+02 -.462E-04   0.733E+02 -.423E+02 -.985E-05   -.142E+02 0.819E+01 0.316E-20   0.515E-04 -.297E-04 0.124E-05
   -.587E+02 -.339E+02 0.573E-04   0.733E+02 0.423E+02 0.133E-04   -.142E+02 -.819E+01 -.246E-20   0.802E-04 0.924E-05 0.716E-06
   -.742E-03 -.677E+02 -.913E-04   0.781E-06 0.846E+02 -.700E-05   -.403E-06 -.164E+02 -.112E-19   0.418E-04 0.292E-04 0.164E-05
   0.587E+02 -.339E+02 -.462E-04   -.733E+02 0.423E+02 -.985E-05   0.142E+02 -.819E+01 0.213E-19   -.152E-04 0.880E-05 0.124E-05
   0.587E+02 0.339E+02 0.411E-05   -.733E+02 -.423E+02 -.136E-04   0.142E+02 0.819E+01 0.444E-20   -.437E-05 -.508E-04 0.497E-06
   -.604E-03 0.677E+02 0.468E-04   0.143E-04 -.846E+02 -.250E-06   0.403E-06 0.164E+02 -.213E-19   0.422E-04 -.304E-04 0.410E-07
   -.587E+02 0.339E+02 -.132E-04   0.733E+02 -.423E+02 0.640E-05   -.142E+02 0.819E+01 -.530E-20   0.125E-04 -.204E-04 -.880E-06
   -.587E+02 -.339E+02 0.570E-04   0.733E+02 0.423E+02 -.980E-05   -.142E+02 -.819E+01 0.167E-19   0.531E-04 0.291E-04 -.124E-05
   -.258E-03 -.677E+02 0.287E-04   -.338E-04 0.846E+02 -.238E-04   -.403E-06 -.164E+02 -.907E-20   0.850E-06 0.402E-04 -.219E-08
   0.587E+02 -.339E+02 -.140E-04   -.733E+02 0.423E+02 0.192E-04   0.142E+02 -.819E+01 -.186E-19   -.434E-05 0.498E-04 -.496E-06
   0.587E+02 0.339E+02 0.702E-04   -.733E+02 -.423E+02 0.138E-04   0.142E+02 0.819E+01 0.103E-19   -.120E-04 -.210E-04 -.812E-06
[...]
   -.596E-03 -.232E-03 0.563E-03   0.148E-04 -.741E-05 -.275E-04   -.980E-20 -.120E-20 -.587E-19   0.488E-05 -.139E-04 0.799E-06
   0.555E-03 -.233E-03 -.508E-03   -.899E-05 0.731E-05 0.141E-04   0.521E-20 0.151E-20 -.130E-20   -.350E-05 -.138E-04 -.798E-06
   -.471E-03 -.387E-03 -.567E-03   -.731E-05 0.325E-05 -.459E-05   0.250E-20 0.340E-20 -.512E-19   -.957E-05 0.103E-04 0.625E-06
   -.596E-03 -.232E-03 0.561E-03   0.148E-04 -.741E-05 -.157E-04   0.105E-19 -.280E-20 -.596E-19   0.488E-05 -.139E-04 0.742E-07
   0.555E-03 -.233E-03 -.507E-03   -.899E-05 0.731E-05 0.748E-05   0.641E-20 -.268E-20 0.113E-20   -.350E-05 -.138E-04 0.106E-05
   0.251E-05 0.105E-02 -.437E-04   -.738E-05 -.176E-04 -.118E-04   0.239E-20 -.227E-20 0.260E-19   0.645E-06 -.290E-04 -.559E-06
   -.431E-03 -.727E-03 -.110E-05   0.118E-04 -.456E-05 0.183E-05   0.260E-20 -.157E-20 -.370E-19   -.105E-04 -.182E-04 -.993E-06
   0.905E-03 0.506E-03 0.471E-04   -.115E-04 0.991E-05 0.113E-05   0.381E-20 -.688E-20 0.290E-19   -.255E-04 -.140E-04 -.142E-06
   0.251E-05 0.105E-02 -.441E-04   -.738E-05 -.176E-04 -.818E-05   0.108E-20 0.901E-20 -.136E-19   0.645E-06 -.290E-04 -.553E-09
   -.431E-03 -.727E-03 -.266E-06   0.118E-04 -.456E-05 -.478E-05   -.566E-20 -.127E-20 -.567E-19   -.105E-04 -.182E-04 0.868E-06
   0.905E-03 0.506E-03 0.454E-04   -.115E-04 0.991E-05 0.130E-04   0.445E-20 -.189E-20 0.113E-19   -.255E-04 -.140E-04 -.867E-06
   0.251E-05 0.105E-02 -.445E-04   -.738E-05 -.176E-04 -.459E-05   -.630E-21 -.280E-20 0.108E-19   0.645E-06 -.290E-04 0.558E-06
   -.431E-03 -.727E-03 -.196E-05   0.118E-04 -.456E-05 0.705E-05   0.893E-20 0.164E-20 -.389E-19   -.105E-04 -.182E-04 0.143E-06
   0.905E-03 0.506E-03 0.463E-04   -.115E-04 0.991E-05 0.635E-05   -.156E-20 -.576E-20 0.942E-20   -.255E-04 -.140E-04 0.994E-06
   0.111E-05 -.642E-06 0.126E-08   -.109E-11 0.176E-11 -.125E-11   0.480E-12 0.179E-12 -.117E-17   -.611E-09 0.345E-09 -.432E-11

 POSITION                                       TOTAL-FORCE (eV/Angst)
      0.00000      1.79733      0.00000        -0.000000     -0.482545     -0.000000
      3.44077      0.89867      1.81907         0.417896     -0.241273      0.000000
      0.94212      3.42912      3.63813         0.417896      0.241273      0.000000
      2.49865      2.53046      0.00000         0.000000      0.482545     -0.000000
     -0.94212      3.42912      1.81907        -0.417896      0.241273     -0.000000
      1.55653      0.89867      3.63813        -0.417896     -0.241273     -0.000000
      0.00000      1.79733      5.45720        -0.000000     -0.482545      0.000000
      3.44077      0.89867      7.27627         0.417896     -0.241273      0.000000
      0.94212      3.42912      9.09533         0.417896      0.241273      0.000000
      2.49865      2.53046      5.45720         0.000000      0.482545      0.000000
     -0.94212      3.42912      7.27627        -0.417896      0.241273      0.000000
      1.55653      0.89867      9.09533        -0.417896     -0.241273     -0.000000
      0.00000      1.79733     10.91440        -0.000000     -0.482545      0.000000
      3.44077      0.89867     12.73347         0.417896     -0.241273      0.000000
      0.94212      3.42912     14.55253         0.417896      0.241273      0.000000
      2.49865      2.53046     10.91440         0.000000      0.482545      0.000000
     -0.94212      3.42912     12.73347        -0.417896      0.241273      0.000000
      1.55653      0.89867     14.55253        -0.417896     -0.241273     -0.000000
     -2.49865      6.12512      0.00000        -0.000000     -0.482545      0.000000
      0.94212      5.22645      1.81907         0.417896     -0.241273      0.000000
     -1.55653      7.75691      3.63813         0.417896      0.241273      0.000000
      0.00000      6.85825      0.00000         0.000000      0.482545     -0.000000
     -3.44077      7.75691      1.81907        -0.417896      0.241273     -0.000000
     -0.94212      5.22645      3.63813        -0.417896     -0.241273     -0.000000
     -2.49865      6.12512      5.45720        -0.000000     -0.482545      0.000000
      0.94212      5.22645      7.27627         0.417896     -0.241273     -0.000000
     -1.55653      7.75691      9.09533         0.417896      0.241273      0.000000
      0.00000      6.85825      5.45720         0.000000      0.482545      0.000000
     -3.44077      7.75691      7.27627        -0.417896      0.241273     -0.000000
     -0.94212      5.22645      9.09533        -0.417896     -0.241273     -0.000000
     -2.49865      6.12512     10.91440        -0.000000     -0.482545     -0.000000
      0.94212      5.22645     12.73347         0.417896     -0.241273      0.000000
     -1.55653      7.75691     14.55253         0.417896      0.241273      0.000000
      0.00000      6.85825     10.91440         0.000000      0.482545      0.000000
     -3.44077      7.75691     12.73347        -0.417896      0.241273      0.000000
     -0.94212      5.22645     14.55253        -0.417896     -0.241273     -0.000000
     -4.99730     10.45291      0.00000        -0.000000     -0.482545      0.000000
     -1.55653      9.55424      1.81907         0.417896     -0.241273      0.000000
     -4.05518     12.08470      3.63813         0.417896      0.241273      0.000000
     -2.49865     11.18604      0.00000         0.000000      0.482545     -0.000000
     -5.93942     12.08470      1.81907        -0.417896      0.241273     -0.000000
     -3.44077      9.55424      3.63813        -0.417896     -0.241273     -0.000000
     -4.99730     10.45291      5.45720        -0.000000     -0.482545     -0.000000
     -1.55653      9.55424      7.27627         0.417896     -0.241273      0.000000
     -4.05518     12.08470      9.09533         0.417896      0.241273      0.000000
     -2.49865     11.18604      5.45720         0.000000      0.482545      0.000000
     -5.93942     12.08470      7.27627        -0.417896      0.241273      0.000000
     -3.44077      9.55424      9.09533        -0.417896     -0.241273     -0.000000
     -4.99730     10.45291     10.91440        -0.000000     -0.482545      0.000000
     -1.55653      9.55424     12.73347         0.417896     -0.241273      0.000000
     -4.05518     12.08470     14.55253         0.417896      0.241273      0.000000
     -2.49865     11.18604     10.91440         0.000000      0.482545      0.000000
     -5.93942     12.08470     12.73347        -0.417896      0.241273     -0.000000
     -3.44077      9.55424     14.55253        -0.417896     -0.241273     -0.000000
      4.99730      1.79733      0.00000        -0.000000     -0.482545     -0.000000
      8.43807      0.89867      1.81907         0.417896     -0.241273      0.000000
      5.93942      3.42912      3.63813         0.417896      0.241273      0.000000
      7.49595      2.53046      0.00000         0.000000      0.482545     -0.000000
      4.05518      3.42912      1.81907        -0.417896      0.241273     -0.000000
      6.55383      0.89867      3.63813        -0.417896     -0.241273     -0.000000
[...]
      9.99460      4.32779      8.18580        -0.000000     -0.000000      0.000000
      8.74528      6.49168     10.00487        -0.000000     -0.000000      0.000000
      6.24663      6.49168      6.36673        -0.000000     -0.000000      0.000000
      9.99460      4.32779     13.64300        -0.000000     -0.000000      0.000000
      8.74528      6.49168     15.46207        -0.000000     -0.000000      0.000000
      6.24663      6.49168     11.82393        -0.000000     -0.000000      0.000000
      7.49595      8.65558      2.72860        -0.000000     -0.000000      0.000000
      6.24663     10.81947      4.54767        -0.000000     -0.000000     -0.000000
      3.74798     10.81947      0.90953        -0.000000     -0.000000     -0.000000
      7.49595      8.65558      8.18580        -0.000000     -0.000000      0.000000
      6.24663     10.81947     10.00487        -0.000000     -0.000000     -0.000000
      3.74798     10.81947      6.36673        -0.000000     -0.000000     -0.000000
      7.49595      8.65558     13.64300        -0.000000     -0.000000     -0.000000
      6.24663     10.81947     15.46207        -0.000000     -0.000000     -0.000000
      3.74798     10.81947     11.82393        -0.000000     -0.000000     -0.000000
    total drift:                                0.000001     -0.000001      0.000000

  FREE ENERGIE OF THE ION-ELECTRON SYSTEM (eV)
  free  energy   TOTEN  =     -1915.59126787 eV

  energy  without entropy=    -1915.59126787  energy(sigma->0) =    -1915.59126787