 vasp.5.3.5 31Mar14 (build Oct 18 2016 11:10:54) complex

 executed on             LinuxIFC date 2017.10.07  14:34:25

 INCAR:
 POTCAR:    PAW_PBE O 08Apr2002
 POTCAR:    PAW_PBE Si 05Jan2001

 POTCAR:    PAW_PBE O 08Apr2002
   VRHFIN =O: s2p4

   TITEL  = PAW_PBE O 08Apr2002
   POMASS =   16.000; ZVAL   =    6.000    mass and valenz
   ENMAX  =  400.000; ENMIN  =  300.000 eV

 POTCAR:    PAW_PBE Si 05Jan2001
   VRHFIN =Si: s2p2

   TITEL  = PAW_PBE Si 05Jan2001
   POMASS =   28.085; ZVAL   =    4.000    mass and valenz
   ENMAX  =  245.345; ENMIN  =  184.009 eV

 Optimization of the real space projectors (new method)

 maximal supplied QI-value         = 24.76
 optimisation between [QCUT,QGAM] = [ 10.15, 20.30] = [ 28.85,115.39] Ry
 Optimized for a Real-space Cutoff    1.51 Angstroem

   l    n(q)    QCUT    max X(q) W(low)/X(q) W(high)/X(q)  e(spline)
   0      9    10.150    20.381    0.17E-03    0.18E-03    0.41E-06
   0      9    10.150    15.268    0.18E-03    0.20E-03    0.43E-06
   1      9    10.150     5.964    0.16E-03    0.20E-03    0.36E-06
   1      9    10.150     5.382    0.13E-03    0.16E-03    0.33E-06
 Optimization of the real space projectors (new method)

 maximal supplied QI-value         = 19.84
 optimisation between [QCUT,QGAM] = [ 10.12, 20.44] = [ 28.68,116.96] Ry
 Optimized for a Real-space Cutoff    1.38 Angstroem

   l    n(q)    QCUT    max X(q) W(low)/X(q) W(high)/X(q)  e(spline)
   0      8    10.119   159.560    0.58E-04    0.11E-03    0.54E-07
   0      8    10.119   115.863    0.56E-04    0.11E-03    0.54E-07
   1      8    10.119    88.339    0.22E-03    0.17E-03    0.19E-06
   1      8    10.119    48.592    0.22E-03    0.17E-03    0.18E-06
  PAW_PBE O 08Apr2002                   :
  PAW_PBE Si 05Jan2001                  :

 POSCAR: (Si O2)81  (P1) ~ Ciellie_MCM41 (MD #12)
  positions in direct lattice
  velocities in cartesian coordinates
 exchange correlation table for  LEXCH =        8
   RHO(1)=    0.500       N(1)  =     2000
   RHO(2)=  100.500       N(2)  =     4000

 ion  position               nearest neighbor table
   1  0.069  0.138  0.000- 165 1.59 170 1.59
   2  0.264  0.069  0.111- 192 1.59 163 1.59
   3  0.195  0.264  0.222- 172 1.59 164 1.59
   4  0.264  0.195  0.000- 192 1.59 170 1.59
   5  0.069  0.264  0.111- 165 1.59 172 1.59
   6  0.138  0.069  0.222- 163 1.59 164 1.59
   7  0.069  0.138  0.333- 164 1.59 168 1.59
   8  0.264  0.069  0.444- 195 1.59 166 1.59
   9  0.195  0.264  0.556- 167 1.59 175 1.59
  10  0.264  0.195  0.333- 164 1.59 195 1.59
  11  0.069  0.264  0.444- 168 1.59 175 1.59
  12  0.138  0.069  0.556- 167 1.59 166 1.59
  13  0.069  0.138  0.667- 171 1.59 167 1.59
  14  0.264  0.069  0.778- 169 1.59 198 1.59
  15  0.195  0.264  0.889- 170 1.59 178 1.59
  16  0.264  0.195  0.667- 198 1.59 167 1.59
  17  0.069  0.264  0.778- 178 1.59 171 1.59
  18  0.138  0.069  0.889- 170 1.59 169 1.59
  19  0.069  0.472  0.000- 174 1.59 179 1.59
  20  0.264  0.403  0.111- 201 1.59 172 1.59
  21  0.195  0.597  0.222- 181 1.59 173 1.59
  22  0.264  0.528  0.000- 179 1.59 201 1.59
  23  0.069  0.597  0.111- 174 1.59 181 1.59
  24  0.138  0.403  0.222- 172 1.59 173 1.59
  25  0.069  0.472  0.333- 173 1.59 177 1.59
  26  0.264  0.403  0.444- 204 1.59 175 1.59
  27  0.195  0.597  0.556- 184 1.59 176 1.59
  28  0.264  0.528  0.333- 173 1.59 204 1.59
  29  0.069  0.597  0.444- 177 1.59 184 1.59
  30  0.138  0.403  0.556- 176 1.59 175 1.59
  31  0.069  0.472  0.667- 180 1.59 176 1.59
  32  0.264  0.403  0.778- 178 1.59 207 1.59
  33  0.195  0.597  0.889- 187 1.59 179 1.59
  34  0.264  0.528  0.667- 207 1.59 176 1.59
  35  0.069  0.597  0.778- 187 1.59 180 1.59
  36  0.138  0.403  0.889- 179 1.59 178 1.59
  37  0.069  0.805  0.000- 183 1.59 188 1.59
  38  0.264  0.736  0.111- 210 1.59 181 1.59
  39  0.195  0.931  0.222- 163 1.59 182 1.59
  40  0.264  0.862  0.000- 188 1.59 210 1.59
  41  0.069  0.931  0.111- 183 1.59 163 1.59
  42  0.138  0.736  0.222- 181 1.59 182 1.59
  43  0.069  0.805  0.333- 186 1.59 182 1.59
  44  0.264  0.736  0.444- 213 1.59 184 1.59
  45  0.195  0.931  0.556- 166 1.59 185 1.59
  46  0.264  0.862  0.333- 182 1.59 213 1.59
  47  0.069  0.931  0.444- 186 1.59 166 1.59
  48  0.138  0.736  0.556- 185 1.59 184 1.59
  49  0.069  0.805  0.667- 189 1.59 185 1.59
  50  0.264  0.736  0.778- 187 1.59 216 1.59
  51  0.195  0.931  0.889- 169 1.59 188 1.59
  52  0.264  0.862  0.667- 216 1.59 185 1.59
  53  0.069  0.931  0.778- 169 1.59 189 1.59
  54  0.138  0.736  0.889- 188 1.59 187 1.59
  55  0.403  0.138  0.000- 192 1.59 197 1.59
  56  0.597  0.069  0.111- 219 1.59 190 1.59
  57  0.528  0.264  0.222- 191 1.59 199 1.59
  58  0.597  0.195  0.000- 219 1.59 197 1.59
  59  0.403  0.264  0.111- 192 1.59 199 1.59
  60  0.472  0.069  0.222- 190 1.59 191 1.59
[...]
 149  0.736  0.931  0.111- 237 1.59 217 1.59
 150  0.805  0.736  0.222- 235 1.59 236 1.59
 151  0.736  0.805  0.333- 236 1.59 240 1.59
 152  0.931  0.736  0.444- 186 1.59 238 1.59
 153  0.862  0.931  0.556- 239 1.59 220 1.59
 154  0.931  0.862  0.333- 236 1.59 186 1.59
 155  0.736  0.931  0.444- 240 1.59 220 1.59
 156  0.805  0.736  0.556- 239 1.59 238 1.59
 157  0.736  0.805  0.667- 243 1.59 239 1.59
 158  0.931  0.736  0.778- 241 1.59 189 1.59
 159  0.862  0.931  0.889- 242 1.59 223 1.59
 160  0.931  0.862  0.667- 189 1.59 239 1.59
 161  0.736  0.931  0.778- 223 1.59 243 1.59
 162  0.805  0.736  0.889- 242 1.59 241 1.59
 163  0.167  0.000  0.167-  39 1.59   2 1.59   6 1.59  41 1.59 192 3.09 182 3.09 164 3.09 183 3.09

 164  0.167  0.167  0.278-  10 1.59   7 1.59   3 1.59   6 1.59 172 3.09 195 3.09 168 3.09 163 3.09

[...]

 243  0.667  0.833  0.722- 157 1.59 104 1.59 106 1.59 161 1.59 239 3.09 214 3.09 212 3.09 223 3.09

  LATTYP: Found a hexagonal cell.
 ALAT       =    14.9919006152
 C/A-ratio  =     1.0920296712

  Lattice vectors:

 A1 = (  14.9919003000,   0.0000000000,   0.0000000000)
 A2 = (  -7.4959498300,  12.9833666900,   0.0000000000)
 A3 = (   0.0000003000,   0.0000005200,  16.3716003000)

Analysis of symmetry for initial positions (statically):
 Subroutine PRICEL returns following result:

[...]

  27 primitive cells build up your supercell.

 Routine SETGRP: Setting up the symmetry group for a
 hexagonal supercell.

 Subroutine GETGRP returns: Found 12 space group operations
 (whereof  4 operations were pure point group operations)
 out of a pool of 24 trial point group operations.

The static configuration has the point symmetry D_2 .
 The point group associated with its full space group is D_6 .

Analysis of symmetry for dynamics (positions and initial velocities):
 Subroutine PRICEL returns following result:

  LATTYP: Found a hexagonal cell.
 ALAT       =     4.9973001551
 C/A-ratio  =     1.0920296712

  Lattice vectors:

 A1 = (   4.9973000500,   0.0000000000,   0.0000000000)
 A2 = (  -2.4986499183,   4.3277888534,   0.0000000000)
 A3 = (   0.0000001000,   0.0000001733,   5.4572000454)

  27 primitive cells build up your supercell.

 Routine SETGRP: Setting up the symmetry group for a
 hexagonal supercell.

 Subroutine GETGRP returns: Found 12 space group operations
 (whereof  4 operations were pure point group operations)
 out of a pool of 24 trial point group operations.

The dynamic configuration has the point symmetry D_2 .
 The point group associated with its full space group is D_6 .

 KPOINTS: Automatic mesh

Automatic generation of k-mesh.
Space group operators:
 irot       det(A)        alpha          n_x          n_y          n_z        tau_x        tau_y        tau_z
    1     1.000000     0.000000     1.000000     0.000000     0.000000     0.000000     0.000000     0.000000
    2     1.000000   180.000000     0.000000     0.000000     1.000000     0.000000     0.000000     0.000000
    3     1.000000   180.000000     1.000000    -0.000000    -0.000000     0.000000     0.000000     0.000000
    4     1.000000   180.000000     0.000000     1.000000    -0.000000     0.000000     0.000000     0.000000
    5     1.000000    60.000000     0.000000    -0.000000    -1.000000    -0.000000     0.000000     0.111111
    6     1.000000   120.000000     0.000000    -0.000000    -1.000000    -0.000000     0.000000     0.222222
    7     1.000000   120.000000     0.000000     0.000000     1.000000    -0.000000     0.000000     0.111111
    8     1.000000    60.000000     0.000000     0.000000     1.000000    -0.000000     0.000000     0.222222
    9     1.000000   180.000000    -0.866025     0.500000    -0.000000    -0.000000     0.000000     0.222222
   10     1.000000   180.000000    -0.500000     0.866025    -0.000000    -0.000000     0.000000     0.111111
   11     1.000000   180.000000     0.500000     0.866025    -0.000000    -0.000000     0.000000     0.222222
   12     1.000000   180.000000    -0.866025    -0.500000     0.000000    -0.000000     0.000000     0.111111

 Subroutine IBZKPT returns following result:

 Found      1 irreducible k-points:

 Following reciprocal coordinates:
            Coordinates               Weight
  0.000000  0.000000  0.000000      1.000000

 Following cartesian coordinates:
            Coordinates               Weight
  0.000000  0.000000  0.000000      1.000000

 I would recommend the setting:
   dimension x,y,z NGX =    98 NGY =   98 NGZ =  107
 SYSTEM =  (Si O2)81  (P1) ~ Ciellie_MCM41 (MD
 POSCAR =  (Si O2)81  (P1) ~ Ciellie_MCM41 (MD #12)

 Startparameter for this run:
   NWRITE =      2    write-flag & timer
   PREC   = accura    normal or accurate (medium, high low for compatibility)
   ISTART =      0    job   : 0-new  1-cont  2-samecut
   ICHARG =      2    charge: 1-file 2-atom 10-const
   ISPIN  =      1    spin polarized calculation?
   LNONCOLLINEAR =      F non collinear calculations
   LSORBIT =      F    spin-orbit coupling
   INIWAV =      1    electr: 0-lowe 1-rand  2-diag
   LASPH  =      F    aspherical Exc in radial PAW
   METAGGA=      F    non-selfconsistent MetaGGA calc.

 Electronic Relaxation 1
   ENCUT  =  400.0 eV  29.40 Ry    5.42 a.u.  24.45 24.45 26.70*2*pi/ulx,y,z
   ENINI  =  400.0     initial cutoff
   ENAUG  =  605.4 eV  augmentation charge cutoff
   NELM   =     60;   NELMIN=  2; NELMDL= -5     # of ELM steps
   EDIFF  = 0.1E-04   stopping-criterion for ELM
   LREAL  =      T    real-space projection
   NLSPLINE    = F    spline interpolate recip. space projectors
   LCOMPAT=      F    compatible to vasp.4.4
   GGA_COMPAT  = T    GGA compatible to vasp.4.4-vasp.4.6
   LMAXPAW     = -100 max onsite density
   LMAXMIX     =    2 max onsite mixed and CHGCAR
   VOSKOWN=      0    Vosko Wilk Nusair interpolation
   ROPT   =   -0.00025  -0.00025
 Ionic relaxation
   EDIFFG = 0.1E-03   stopping-criterion for IOM
   NSW    =      0    number of steps for IOM
   NBLOCK =      1;   KBLOCK =      1    inner block; outer block
   IBRION =     -1    ionic relax: 0-MD 1-quasi-New 2-CG
   NFREE  =      0    steps in history (QN), initial steepest desc. (CG)
   ISIF   =      2    stress and relaxation
   IWAVPR =     10    prediction:  0-non 1-charg 2-wave 3-comb
   ISYM   =      2    0-nonsym 1-usesym 2-fastsym
   LCORR  =      T    Harris-Foulkes like correction to forces

[...]
     0.000000300  0.000000520 16.371600300     0.000000000  0.000000000  0.061081384

  length of vectors
    14.991900300 14.991900295 16.371600300     0.077021625  0.077021625  0.061081384

 FORCES acting on ions
    electron-ion (+dipol)            ewald-force                    non-local-force                 convergence-correction
   -.511E-04 0.677E+02 0.488E-05   -.163E-05 -.846E+02 0.631E-06   0.404E-06 0.164E+02 -.282E-19   -.468E-06 -.152E-04 0.339E-08
   -.587E+02 0.339E+02 -.666E-04   0.733E+02 -.423E+02 -.985E-05   -.142E+02 0.819E+01 -.186E-19   0.772E-04 -.907E-05 -.712E-06
   -.587E+02 -.339E+02 -.409E-04   0.733E+02 0.423E+02 0.924E-05   -.142E+02 -.819E+01 -.211E-19   0.449E-04 0.620E-04 -.151E-05
   0.614E-03 -.677E+02 0.926E-04   0.495E-05 0.846E+02 -.615E-05   -.404E-06 -.164E+02 0.163E-19   0.312E-04 0.698E-04 0.265E-06
   0.587E+02 -.339E+02 0.107E-03   -.733E+02 0.423E+02 0.157E-04   0.142E+02 -.819E+01 -.618E-19   -.465E-04 0.623E-04 -.190E-06
   0.587E+02 0.339E+02 0.349E-04   -.733E+02 -.423E+02 0.160E-04   0.142E+02 0.819E+01 0.133E-19   -.129E-04 -.800E-05 -.125E-05
   -.412E-04 0.677E+02 0.717E-04   -.193E-04 -.846E+02 0.183E-04   0.404E-06 0.164E+02 -.640E-20   -.465E-06 -.152E-04 -.168E-05
   -.587E+02 0.339E+02 0.113E-05   0.733E+02 -.423E+02 0.714E-05   -.142E+02 0.819E+01 0.515E-19   0.772E-04 -.907E-05 -.109E-05
   -.587E+02 -.339E+02 -.175E-03   0.733E+02 0.423E+02 -.205E-04   -.142E+02 -.819E+01 -.244E-19   0.449E-04 0.620E-04 0.567E-06
   0.604E-03 -.677E+02 0.159E-03   0.226E-04 0.846E+02 0.115E-04   -.404E-06 -.164E+02 0.269E-19   0.312E-04 0.698E-04 -.142E-05
   0.587E+02 -.339E+02 0.175E-03   -.733E+02 0.423E+02 0.327E-04   0.142E+02 -.819E+01 -.376E-19   -.465E-04 0.624E-04 -.571E-06
   0.587E+02 0.339E+02 -.995E-04   -.733E+02 -.423E+02 -.138E-04   0.142E+02 0.819E+01 -.108E-19   -.129E-04 -.801E-05 0.828E-06
   -.611E-04 0.677E+02 -.620E-04   0.160E-04 -.846E+02 -.170E-04   0.404E-06 0.164E+02 -.172E-19   -.470E-06 -.152E-04 0.169E-05
   -.587E+02 0.339E+02 -.133E-03   0.733E+02 -.423E+02 -.226E-04   -.142E+02 0.819E+01 -.162E-19   0.772E-04 -.907E-05 0.981E-06
   -.587E+02 -.339E+02 -.107E-03   0.733E+02 0.423E+02 -.355E-05   -.142E+02 -.819E+01 -.389E-19   0.449E-04 0.620E-04 0.186E-06
   0.624E-03 -.677E+02 0.257E-04   -.127E-04 0.846E+02 -.238E-04   -.404E-06 -.164E+02 0.167E-19   0.312E-04 0.698E-04 0.195E-05
   0.587E+02 -.339E+02 0.406E-04   -.733E+02 0.423E+02 0.294E-05   0.142E+02 -.819E+01 -.310E-19   -.465E-04 0.623E-04 0.150E-05
   0.587E+02 0.339E+02 -.317E-04   -.733E+02 -.423E+02 0.320E-05   0.142E+02 0.819E+01 0.182E-19   -.129E-04 -.800E-05 0.447E-06
   0.263E-03 0.677E+02 -.290E-04   -.854E-05 -.846E+02 0.284E-05   0.404E-06 0.164E+02 -.214E-19   -.122E-04 -.177E-04 -.429E-06
   -.587E+02 0.339E+02 0.552E-04   0.733E+02 -.423E+02 -.133E-04   -.142E+02 0.819E+01 -.170E-19   0.425E-04 0.227E-04 -.405E-06
   -.587E+02 -.339E+02 0.209E-04   0.733E+02 0.423E+02 0.269E-04   -.142E+02 -.819E+01 -.148E-19   0.316E-04 0.192E-04 -.124E-05
   0.814E-04 -.677E+02 -.651E-05   0.253E-04 0.846E+02 0.129E-04   -.404E-06 -.164E+02 0.119E-19   -.131E-05 0.574E-04 -.342E-08
   0.587E+02 -.339E+02 0.521E-04   -.733E+02 0.423E+02 -.526E-06   0.142E+02 -.819E+01 -.493E-19   -.212E-04 -.898E-06 -.228E-07
   0.587E+02 0.339E+02 -.481E-05   -.733E+02 -.423E+02 0.169E-04   0.142E+02 0.819E+01 0.135E-19   -.447E-04 0.229E-04 -.128E-05
   0.273E-03 0.677E+02 0.379E-04   -.262E-04 -.846E+02 0.205E-04   0.404E-06 0.164E+02 -.123E-19   -.122E-04 -.177E-04 -.211E-05
   -.587E+02 0.339E+02 0.123E-03   0.733E+02 -.423E+02 0.368E-05   -.142E+02 0.819E+01 0.235E-19   0.425E-04 0.227E-04 -.786E-06
   -.587E+02 -.339E+02 -.113E-03   0.733E+02 0.423E+02 -.285E-05   -.142E+02 -.819E+01 -.121E-19   0.316E-04 0.192E-04 0.834E-06
   0.715E-04 -.677E+02 0.603E-04   0.430E-04 0.846E+02 0.305E-04   -.404E-06 -.164E+02 0.273E-19   -.131E-05 0.574E-04 -.169E-05
   0.587E+02 -.339E+02 0.120E-03   -.733E+02 0.423E+02 0.165E-04   0.142E+02 -.819E+01 -.443E-19   -.212E-04 -.896E-06 -.404E-06
   0.587E+02 0.339E+02 -.139E-03   -.733E+02 -.423E+02 -.129E-04   0.142E+02 0.819E+01 0.345E-20   -.447E-04 0.229E-04 0.791E-06
   0.253E-03 0.677E+02 -.959E-04   0.912E-05 -.846E+02 -.148E-04   0.404E-06 0.164E+02 -.303E-19   -.122E-04 -.177E-04 0.126E-05
   -.587E+02 0.339E+02 -.114E-04   0.733E+02 -.423E+02 -.261E-04   -.142E+02 0.819E+01 -.370E-19   0.425E-04 0.227E-04 0.129E-05
   -.587E+02 -.339E+02 -.457E-04   0.733E+02 0.423E+02 0.141E-04   -.142E+02 -.819E+01 -.213E-19   0.316E-04 0.192E-04 0.453E-06
   0.914E-04 -.677E+02 -.734E-04   0.769E-05 0.846E+02 -.479E-05   -.404E-06 -.164E+02 0.204E-19   -.130E-05 0.574E-04 0.168E-05
   0.587E+02 -.339E+02 -.145E-04   -.733E+02 0.423E+02 -.133E-04   0.142E+02 -.819E+01 -.245E-19   -.212E-04 -.898E-06 0.167E-05
   0.587E+02 0.339E+02 -.714E-04   -.733E+02 -.423E+02 0.408E-05   0.142E+02 0.819E+01 0.143E-19   -.447E-04 0.229E-04 0.410E-06
   0.555E-03 0.677E+02 -.776E-04   0.119E-04 -.846E+02 -.162E-04   0.404E-06 0.164E+02 -.279E-19   0.321E-04 -.709E-04 -.265E-06
   -.587E+02 0.339E+02 0.204E-04   0.733E+02 -.423E+02 0.294E-05   -.142E+02 0.819E+01 -.146E-19   0.488E-04 -.281E-04 -.451E-06
   -.587E+02 -.339E+02 0.124E-03   0.733E+02 0.423E+02 0.260E-04   -.142E+02 -.819E+01 -.144E-19   0.774E-04 0.766E-05 -.977E-06
   -.752E-03 -.677E+02 -.245E-04   0.184E-04 0.846E+02 0.107E-04   -.404E-06 -.164E+02 0.190E-19   0.417E-04 0.260E-04 -.463E-07
   0.587E+02 -.339E+02 0.204E-04   -.733E+02 0.423E+02 0.294E-05   0.142E+02 -.819E+01 -.794E-19   -.125E-04 0.722E-05 -.451E-06
   0.587E+02 0.339E+02 0.707E-04   -.733E+02 -.423E+02 -.824E-06   0.142E+02 0.819E+01 0.118E-19   -.164E-05 -.492E-04 -.120E-05
   0.565E-03 0.677E+02 -.108E-04   -.580E-05 -.846E+02 0.147E-05   0.404E-06 0.164E+02 -.509E-20   0.321E-04 -.709E-04 -.195E-05
   -.587E+02 0.339E+02 0.881E-04   0.733E+02 -.423E+02 0.199E-04   -.142E+02 0.819E+01 0.692E-20   0.488E-04 -.282E-04 -.832E-06
   -.587E+02 -.339E+02 -.105E-04   0.733E+02 0.423E+02 -.373E-05   -.142E+02 -.819E+01 -.194E-19   0.774E-04 0.766E-05 0.110E-05
   -.762E-03 -.677E+02 0.424E-04   0.361E-04 0.846E+02 0.283E-04   -.404E-06 -.164E+02 0.158E-19   0.417E-04 0.260E-04 -.173E-05
   0.587E+02 -.339E+02 0.881E-04   -.733E+02 0.423E+02 0.199E-04   0.142E+02 -.819E+01 0.270E-19   -.125E-04 0.722E-05 -.832E-06
   0.587E+02 0.339E+02 -.637E-04   -.733E+02 -.423E+02 -.306E-04   0.142E+02 0.819E+01 0.272E-20   -.165E-05 -.492E-04 0.878E-06
   0.545E-03 0.677E+02 -.144E-03   0.295E-04 -.846E+02 -.339E-04   0.404E-06 0.164E+02 -.113E-19   0.321E-04 -.709E-04 0.142E-05
   -.587E+02 0.339E+02 -.462E-04   0.733E+02 -.423E+02 -.985E-05   -.142E+02 0.819E+01 -.410E-19   0.488E-04 -.281E-04 0.124E-05
   -.587E+02 -.339E+02 0.572E-04   0.733E+02 0.423E+02 0.133E-04   -.142E+02 -.819E+01 -.285E-19   0.774E-04 0.766E-05 0.715E-06
   -.742E-03 -.677E+02 -.913E-04   0.781E-06 0.846E+02 -.700E-05   -.404E-06 -.164E+02 0.430E-19   0.417E-04 0.260E-04 0.164E-05
   0.587E+02 -.339E+02 -.462E-04   -.733E+02 0.423E+02 -.985E-05   0.142E+02 -.819E+01 -.446E-19   -.125E-04 0.722E-05 0.124E-05
   0.587E+02 0.339E+02 0.411E-05   -.733E+02 -.423E+02 -.136E-04   0.142E+02 0.819E+01 0.274E-19   -.164E-05 -.492E-04 0.497E-06
   -.604E-03 0.677E+02 0.468E-04   0.143E-04 -.846E+02 -.250E-06   0.404E-06 0.164E+02 -.306E-19   0.422E-04 -.272E-04 0.408E-07
   -.587E+02 0.339E+02 -.132E-04   0.733E+02 -.423E+02 0.640E-05   -.142E+02 0.819E+01 -.252E-19   0.981E-05 -.188E-04 -.879E-06
   -.587E+02 -.339E+02 0.570E-04   0.733E+02 0.423E+02 -.980E-05   -.142E+02 -.819E+01 -.250E-19   0.503E-04 0.276E-04 -.124E-05
   -.258E-03 -.677E+02 0.287E-04   -.338E-04 0.846E+02 -.238E-04   -.404E-06 -.164E+02 0.262E-19   0.850E-06 0.370E-04 -.216E-08
   0.587E+02 -.339E+02 -.140E-04   -.733E+02 0.423E+02 0.192E-04   0.142E+02 -.819E+01 -.720E-19   -.161E-05 0.482E-04 -.496E-06
   0.587E+02 0.339E+02 0.702E-04   -.733E+02 -.423E+02 0.138E-04   0.142E+02 0.819E+01 0.179E-19   -.924E-05 -.194E-04 -.813E-06
[...]
   -.595E-03 -.231E-03 0.563E-03   0.148E-04 -.741E-05 -.275E-04   -.698E-21 -.309E-21 0.269E-19   0.488E-05 -.139E-04 0.799E-06
   0.554E-03 -.233E-03 -.508E-03   -.899E-05 0.731E-05 0.141E-04   0.162E-21 0.315E-20 0.402E-19   -.349E-05 -.138E-04 -.798E-06
   -.471E-03 -.387E-03 -.566E-03   -.731E-05 0.325E-05 -.459E-05   -.482E-21 -.132E-20 -.646E-19   -.956E-05 0.103E-04 0.625E-06
   -.595E-03 -.231E-03 0.561E-03   0.148E-04 -.741E-05 -.157E-04   0.103E-21 -.115E-20 0.143E-19   0.488E-05 -.139E-04 0.745E-07
   0.554E-03 -.233E-03 -.507E-03   -.899E-05 0.731E-05 0.748E-05   0.668E-21 -.233E-20 0.294E-19   -.349E-05 -.138E-04 0.106E-05
   0.245E-05 0.105E-02 -.437E-04   -.738E-05 -.176E-04 -.118E-04   -.200E-20 0.467E-20 0.217E-19   0.644E-06 -.290E-04 -.559E-06
   -.431E-03 -.725E-03 -.110E-05   0.118E-04 -.456E-05 0.183E-05   -.106E-20 -.671E-21 0.174E-19   -.105E-04 -.182E-04 -.993E-06
   0.906E-03 0.506E-03 0.471E-04   -.115E-04 0.991E-05 0.113E-05   0.194E-21 0.209E-20 -.219E-19   -.254E-04 -.139E-04 -.142E-06
   0.245E-05 0.105E-02 -.441E-04   -.738E-05 -.176E-04 -.818E-05   -.212E-21 0.462E-20 -.135E-19   0.644E-06 -.290E-04 -.713E-09
   -.431E-03 -.725E-03 -.266E-06   0.118E-04 -.456E-05 -.478E-05   -.986E-21 0.221E-20 0.502E-19   -.105E-04 -.182E-04 0.867E-06
   0.906E-03 0.506E-03 0.454E-04   -.115E-04 0.991E-05 0.130E-04   -.189E-20 0.316E-20 0.466E-19   -.254E-04 -.139E-04 -.867E-06
   0.245E-05 0.105E-02 -.445E-04   -.738E-05 -.176E-04 -.459E-05   -.159E-20 0.312E-20 -.419E-19   0.644E-06 -.290E-04 0.558E-06
   -.431E-03 -.725E-03 -.196E-05   0.118E-04 -.456E-05 0.705E-05   -.800E-21 0.269E-20 0.140E-19   -.105E-04 -.182E-04 0.143E-06
   0.906E-03 0.506E-03 0.462E-04   -.115E-04 0.991E-05 0.635E-05   -.372E-20 0.356E-21 0.263E-19   -.254E-04 -.139E-04 0.993E-06
   0.111E-05 -.642E-06 0.121E-08   -.109E-11 0.176E-11 -.125E-11   0.966E-12 -.222E-12 -.135E-18   -.608E-09 0.342E-09 -.550E-11

 POSITION                                       TOTAL-FORCE (eV/Angst)
      0.00000      1.79733      0.00000        -0.000000     -0.481751      0.000000
      3.44077      0.89867      1.81907         0.417208     -0.240875     -0.000000
      0.94212      3.42912      3.63813         0.417208      0.240875      0.000000
      2.49865      2.53046      0.00000         0.000000      0.481751     -0.000000
     -0.94212      3.42912      1.81907        -0.417208      0.240875     -0.000000
      1.55653      0.89867      3.63813        -0.417208     -0.240875     -0.000000
      0.00000      1.79733      5.45720        -0.000000     -0.481751      0.000000
      3.44077      0.89867      7.27627         0.417208     -0.240875      0.000000
      0.94212      3.42912      9.09533         0.417208      0.240875      0.000000
      2.49865      2.53046      5.45720         0.000000      0.481751     -0.000000
     -0.94212      3.42912      7.27627        -0.417208      0.240875      0.000000
      1.55653      0.89867      9.09533        -0.417208     -0.240875      0.000000
      0.00000      1.79733     10.91440        -0.000000     -0.481751      0.000000
      3.44077      0.89867     12.73347         0.417208     -0.240875      0.000000
      0.94212      3.42912     14.55253         0.417208      0.240875     -0.000000
      2.49865      2.53046     10.91440         0.000000      0.481751     -0.000000
     -0.94212      3.42912     12.73347        -0.417208      0.240875     -0.000000
      1.55653      0.89867     14.55253        -0.417208     -0.240875      0.000000
     -2.49865      6.12512      0.00000        -0.000000     -0.481751      0.000000
      0.94212      5.22645      1.81907         0.417208     -0.240875     -0.000000
     -1.55653      7.75691      3.63813         0.417208      0.240875      0.000000
      0.00000      6.85825      0.00000         0.000000      0.481751      0.000000
     -3.44077      7.75691      1.81907        -0.417208      0.240875     -0.000000
     -0.94212      5.22645      3.63813        -0.417208     -0.240875      0.000000
     -2.49865      6.12512      5.45720        -0.000000     -0.481751      0.000000
      0.94212      5.22645      7.27627         0.417208     -0.240875      0.000000
     -1.55653      7.75691      9.09533         0.417208      0.240875     -0.000000
      0.00000      6.85825      5.45720         0.000000      0.481751     -0.000000
     -3.44077      7.75691      7.27627        -0.417208      0.240875      0.000000
     -0.94212      5.22645      9.09533        -0.417208     -0.240875     -0.000000
     -2.49865      6.12512     10.91440        -0.000000     -0.481751      0.000000
      0.94212      5.22645     12.73347         0.417208     -0.240875      0.000000
     -1.55653      7.75691     14.55253         0.417208      0.240875      0.000000
      0.00000      6.85825     10.91440         0.000000      0.481751      0.000000
     -3.44077      7.75691     12.73347        -0.417208      0.240875     -0.000000
     -0.94212      5.22645     14.55253        -0.417208     -0.240875     -0.000000
     -4.99730     10.45291      0.00000        -0.000000     -0.481751      0.000000
     -1.55653      9.55424      1.81907         0.417208     -0.240875     -0.000000
     -4.05518     12.08470      3.63813         0.417208      0.240875      0.000000
     -2.49865     11.18604      0.00000         0.000000      0.481751      0.000000
     -5.93942     12.08470      1.81907        -0.417208      0.240875     -0.000000
     -3.44077      9.55424      3.63813        -0.417208     -0.240875     -0.000000
     -4.99730     10.45291      5.45720        -0.000000     -0.481751      0.000000
     -1.55653      9.55424      7.27627         0.417208     -0.240875      0.000000
     -4.05518     12.08470      9.09533         0.417208      0.240875     -0.000000
     -2.49865     11.18604      5.45720         0.000000      0.481751      0.000000
     -5.93942     12.08470      7.27627        -0.417208      0.240875     -0.000000
     -3.44077      9.55424      9.09533        -0.417208     -0.240875     -0.000000
     -4.99730     10.45291     10.91440        -0.000000     -0.481751      0.000000
     -1.55653      9.55424     12.73347         0.417208     -0.240875     -0.000000
     -4.05518     12.08470     14.55253         0.417208      0.240875      0.000000
     -2.49865     11.18604     10.91440         0.000000      0.481751      0.000000
     -5.93942     12.08470     12.73347        -0.417208      0.240875     -0.000000
     -3.44077      9.55424     14.55253        -0.417208     -0.240875     -0.000000
      4.99730      1.79733      0.00000        -0.000000     -0.481751      0.000000
      8.43807      0.89867      1.81907         0.417208     -0.240875     -0.000000
      5.93942      3.42912      3.63813         0.417208      0.240875      0.000000
      7.49595      2.53046      0.00000         0.000000      0.481751      0.000000
      4.05518      3.42912      1.81907        -0.417208      0.240875     -0.000000
      6.55383      0.89867      3.63813        -0.417208     -0.240875     -0.000000
[...]
      9.99460      4.32779      8.18580        -0.000000      0.000000      0.000000
      8.74528      6.49168     10.00487        -0.000000      0.000000      0.000000
      6.24663      6.49168      6.36673        -0.000000      0.000000     -0.000000
      9.99460      4.32779     13.64300        -0.000000      0.000000     -0.000000
      8.74528      6.49168     15.46207        -0.000000      0.000000      0.000000
      6.24663      6.49168     11.82393        -0.000000      0.000000     -0.000000
      7.49595      8.65558      2.72860        -0.000000      0.000000     -0.000000
      6.24663     10.81947      4.54767        -0.000000      0.000000      0.000000
      3.74798     10.81947      0.90953        -0.000000      0.000000      0.000000
      7.49595      8.65558      8.18580        -0.000000      0.000000     -0.000000
      6.24663     10.81947     10.00487        -0.000000      0.000000      0.000000
      3.74798     10.81947      6.36673        -0.000000      0.000000      0.000000
      7.49595      8.65558     13.64300        -0.000000      0.000000     -0.000000
      6.24663     10.81947     15.46207        -0.000000      0.000000      0.000000
      3.74798     10.81947     11.82393        -0.000000      0.000000     -0.000000
    total drift:                                0.000001     -0.000001      0.000000

  FREE ENERGIE OF THE ION-ELECTRON SYSTEM (eV)
  free  energy   TOTEN  =     -1915.45628485 eV

  energy  without entropy=    -1915.45628485  energy(sigma->0) =    -1915.45628485